% demand
num_movements = 12;
loading_factor = [1850, 1800, 1950, 1400, 1900, 1300, 850, 1600, 1450, 1600, 1600, 1050];
pickup_time = [0, 0, 0, 0, 2, 3, 3, 3, 5, 7, 7, 7];
delivery_time = [3, 4, 2, 6, 3, 8, 7, 7, 8, 8, 8, 8];

% transporter definition
total_capacity = 7000;
num_decks = 3;
capacity = [3000, 1000, 3000];

% ways out of decks
num_ways_out = 1;
paths_out = array3d(decks, ways_out, decks, [
% ways out of deck d1
2, 3, 0, 

% ways out of deck d2
3, 0, 0, 

% ways out of deck d3
0, 0, 0,	

]);

